p tdp 20 72
1 3
1 6
1 7
1 8
1 9
1 12
1 15
2 5
2 7
2 9
2 11
2 13
2 14
2 15
2 18
3 8
3 14
3 15
3 16
3 17
3 20
4 10
4 11
4 18
4 19
5 11
5 12
5 16
5 19
5 20
6 8
6 13
6 18
7 13
7 14
7 15
7 16
7 17
7 18
7 19
7 20
8 9
8 10
8 11
8 12
8 13
8 14
9 14
9 16
9 17
10 11
11 14
11 19
12 13
12 14
12 15
12 16
12 17
13 14
13 15
13 19
13 20
14 15
14 16
14 18
14 19
15 17
16 17
16 18
17 18
18 19
18 20
